Copyright (C) 2013-2015, Filipe Brandao
Build (method = -2)
  #dp: 1344
  Step-3' Graph: 72 vertices and 659 arcs (0.00s)
  Step-4' Graph: 69 vertices and 653 arcs (0.00s)
  #V4/#V3 = 0.96
  #A4/#A3 = 0.99
Ready! (0.00s)
Optimize a model with 110 rows, 654 columns and 1828 nonzeros
Found heuristic solution: objective 30
Presolve removed 22 rows and 22 columns
Presolve time: 0.01s
Presolved: 88 rows, 632 columns, 1766 nonzeros
Variable types: 0 continuous, 632 integer (500 binary)
Optimize a model with 88 rows, 632 columns and 1766 nonzeros
Presolved: 88 rows, 632 columns, 1766 nonzeros

Root barrier log...

Ordering time: 0.00s

Barrier statistics:
 AA' NZ     : 1.248e+03
 Factor NZ  : 2.636e+03
 Factor Ops : 1.038e+05 (less than 1 second per iteration)
 Threads    : 1

                  Objective                Residual
Iter       Primal          Dual         Primal    Dual     Compl     Time
   0   3.43605779e+02 -1.28385876e+03  1.32e+03 9.76e-02  5.39e+00     0s
   1   1.04145012e+02 -3.67841742e+02  1.88e+02 4.44e-16  9.02e-01     0s
   2   4.59619614e+01 -4.18710245e+01  2.28e+01 4.44e-16  1.28e-01     0s
   3   3.05565784e+01  4.14107907e+00  1.34e+00 2.22e-16  2.35e-02     0s
   4   2.83473927e+01  1.95978749e+01  1.12e-01 2.98e-16  7.01e-03     0s
   5   2.71042717e+01  2.23662845e+01  5.05e-02 2.23e-16  3.77e-03     0s
   6   2.58871972e+01  2.35751472e+01  1.28e-02 2.42e-16  1.83e-03     0s
   7   2.56175939e+01  2.41340853e+01  8.51e-03 2.37e-16  1.18e-03     0s
   8   2.51508398e+01  2.46339665e+01  1.44e-03 3.18e-16  4.09e-04     0s
   9   2.50115098e+01  2.49388526e+01  7.05e-05 3.46e-16  5.74e-05     0s
  10   2.50000432e+01  2.49999182e+01  7.17e-08 3.66e-16  9.87e-08     0s
  11   2.50000000e+01  2.50000000e+01  7.88e-14 3.33e-16  1.02e-13     0s

Barrier solved model in 11 iterations and 0.00 seconds
Optimal objective 2.50000000e+01


Root relaxation: objective 2.500000e+01, 282 iterations, 0.01 seconds

    Nodes    |    Current Node    |     Objective Bounds      |     Work
 Expl Unexpl |  Obj  Depth IntInf | Incumbent    BestBd   Gap | It/Node Time

*    0     0               0      25.0000000   25.00000  0.00%     -    0s

Explored 0 nodes (282 simplex iterations) in 0.02 seconds
Thread count was 1 (of 4 available processors)

Optimal solution found (tolerance 0.00e+00)
Best objective 2.500000000000e+01, best bound 2.500000000000e+01, gap 0.0%
Preprocessing time: 0.00 seconds
Gurobi run time: 0.02 seconds
Total run time: 0.02 seconds
Objective: 25
Solution:
1 x [i=1]
1 x [i=2]
3 x [i=3]
1 x [i=4, i=38]
1 x [i=5, i=36]
1 x [i=6]
1 x [i=7, i=35]
1 x [i=7, i=37, i=41]
1 x [i=8, i=30]
1 x [i=9, i=29]
1 x [i=10, i=32, i=40]
1 x [i=11, i=27]
1 x [i=12, i=28]
1 x [i=13, i=25]
1 x [i=13, i=26]
1 x [i=14, i=23]
1 x [i=15, i=22]
1 x [i=16, i=20]
1 x [i=16, i=21]
1 x [i=17, i=22, i=34]
1 x [i=18, i=22, i=33]
1 x [i=18, i=24, i=31]
1 x [i=19, i=19, i=39]
